161
0 80 24 19 76 12 91 112 67 89 
160 105 150 116 158 30 36 148 119 96 
106 134 82 94 74 48 137 157 86 60 
5 64 68 27 7 99 70 10 18 144 
28 50 155 20 152 149 43 126 118 128 
159 138 16 120 124 26 59 57 75 22 
4 53 62 110 92 51 39 13 135 72 
17 133 125 71 77 8 42 140 123 79 
88 46 108 117 90 38 49 55 93 6 
115 104 153 41 129 114 34 87 63 83 
85 122 1 23 31 113 147 151 14 139 
95 29 33 107 52 61 58 103 3 145 
142 111 130 154 2 132 44 102 98 78 
143 54 65 97 121 101 146 131 127 21 
141 84 100 35 9 73 69 66 45 32 
47 109 136 156 56 11 81 40 37 25 
15 
